&CONTROL
    pseudo_dir = "C:\Users\ROG\.burai\.pseudopot"
/

&SYSTEM
    a     =  6.38448e+00
    c     =  1.33783e+01
    ibrav = 4
    nat   = 24
    ntyp  = 3
/

ATOMIC_SPECIES
Sn    118.71000  Sn.pbe-dn-rrkjus_psl.1.0.0.UPF
Se     78.96000  Se.pbe-n-rrkjus_psl.1.0.0.UPF
W     183.84000  W.pbe-nsp-van.UPF

ATOMIC_POSITIONS {angstrom}
Sn     -0.000003   1.843038  10.033721
Sn     -1.596122   4.607597  10.033721
Sn      3.192235   1.843038  10.033721
Sn      1.596116   4.607597  10.033721
Se      1.596119   0.921516   8.469557
Se      0.000000   3.686075   8.469557
Se      4.788357   0.921516   8.469557
Se      3.192238   3.686075   8.469557
Se     -0.000003   1.843038   4.908737
Se     -1.596122   4.607597   4.908737
Se      3.192235   1.843038   4.908737
Se      1.596116   4.607597   4.908737
Se      1.596119   0.921516  11.597884
Se      0.000000   3.686075  11.597884
Se      4.788357   0.921516  11.597884
Se      3.192238   3.686075  11.597884
Se     -0.000003   1.843038   1.780410
Se     -1.596122   4.607597   1.780410
Se      3.192235   1.843038   1.780410
Se      1.596116   4.607597   1.780410
W       1.596119   0.921516   3.344574
W       0.000000   3.686075   3.344574
W       4.788357   0.921516   3.344574
W       3.192238   3.686075   3.344574


